Welcome to the CBC MILP Solver 
Version: 2.10.3 
Build Date: Dec 15 2019 

command line - /work/zhang-x2/users/yc2632/miniconda3/envs/newpt2/lib/python3.9/site-packages/pulp/solverdir/cbc/linux/64/cbc /tmp/cf7e46862a4443868a2b55e1aa011914-pulp.mps sec 900 timeMode elapsed branch printingOptions all solution /tmp/cf7e46862a4443868a2b55e1aa011914-pulp.sol (default strategy 1)
At line 2 NAME          MODEL
At line 3 ROWS
At line 16354 COLUMNS
At line 136866 RHS
At line 153216 BOUNDS
At line 156608 ENDATA
Problem MODEL has 16349 rows, 3391 columns and 108957 elements
Coin0008I MODEL read with 0 errors
seconds was changed from 1e+100 to 900
Option for timeMode changed from cpu to elapsed
Continuous objective value is 1.001 - 0.02 seconds
Cgl0003I 0 fixed, 0 tightened bounds, 4785 strengthened rows, 0 substitutions
Cgl0003I 0 fixed, 0 tightened bounds, 347 strengthened rows, 0 substitutions
Cgl0003I 0 fixed, 0 tightened bounds, 332 strengthened rows, 0 substitutions
Cgl0003I 0 fixed, 0 tightened bounds, 329 strengthened rows, 0 substitutions
Cgl0003I 0 fixed, 0 tightened bounds, 321 strengthened rows, 0 substitutions
Cgl0003I 0 fixed, 0 tightened bounds, 311 strengthened rows, 0 substitutions
Cgl0003I 0 fixed, 0 tightened bounds, 297 strengthened rows, 0 substitutions
Cgl0003I 0 fixed, 0 tightened bounds, 289 strengthened rows, 0 substitutions
Cgl0003I 0 fixed, 0 tightened bounds, 287 strengthened rows, 0 substitutions
Cgl0004I processed model has 11857 rows, 2365 columns (2153 integer (2153 of which binary)) and 60245 elements
Cutoff increment increased from 1e-05 to 0.000999
Cbc0038I Initial state - 233 integers unsatisfied sum - 3.42708
Cbc0038I Pass   1: (3.37 seconds) suminf.    2.89171 (296) obj. 1.95902 iterations 3673
Cbc0038I Pass   2: (3.51 seconds) suminf.    3.92241 (171) obj. 3.25359 iterations 780
Cbc0038I Pass   3: (3.73 seconds) suminf.    2.32428 (361) obj. 2.05821 iterations 1406
Cbc0038I Pass   4: (3.96 seconds) suminf.    2.50996 (472) obj. 2.23779 iterations 1397
Cbc0038I Pass   5: (4.34 seconds) suminf.    0.00000 (0) obj. 297.022 iterations 2750
Cbc0038I Solution found of 297.022
Cbc0038I Relaxing continuous gives 297.022
Cbc0038I Rounding solution of 65.721 is better than previous of 297.022

Cbc0038I Before mini branch and bound, 1146 integers at bound fixed and 6 continuous
Cbc0038I Full problem 11857 rows 2365 columns, reduced to 5384 rows 1166 columns
Cbc0038I Mini branch and bound improved solution from 65.721 to 5.514 (7.23 seconds)
Cbc0038I Round again with cutoff of 5.09082
Cbc0038I Pass   6: (7.24 seconds) suminf.    2.89171 (296) obj. 1.95902 iterations 0
Cbc0038I Pass   7: (7.39 seconds) suminf.    2.96041 (228) obj. 2.33267 iterations 781
Cbc0038I Pass   8: (7.62 seconds) suminf.    2.32428 (361) obj. 2.05821 iterations 1636
Cbc0038I Pass   9: (7.84 seconds) suminf.    2.51031 (464) obj. 2.23419 iterations 1262
Cbc0038I Pass  10: (8.44 seconds) suminf.   16.54838 (129) obj. 5.09082 iterations 3578
Cbc0038I Pass  11: (9.03 seconds) suminf.    2.31937 (357) obj. 2.05731 iterations 3416
Cbc0038I Pass  12: (9.23 seconds) suminf.    2.50034 (484) obj. 2.21872 iterations 1048
Cbc0038I Pass  13: (10.06 seconds) suminf.    6.29628 (201) obj. 5.09082 iterations 5088
Cbc0038I Pass  14: (10.52 seconds) suminf.    2.32679 (255) obj. 3.75234 iterations 3293
Cbc0038I Pass  15: (10.77 seconds) suminf.    2.10595 (79) obj. 5.09082 iterations 1612
Cbc0038I Pass  16: (10.91 seconds) suminf.    1.67863 (131) obj. 4.73347 iterations 1196
Cbc0038I Pass  17: (11.13 seconds) suminf.    2.08870 (114) obj. 5.09082 iterations 1376
Cbc0038I Pass  18: (11.38 seconds) suminf.    5.54035 (123) obj. 5.09082 iterations 1874
Cbc0038I Pass  19: (12.74 seconds) suminf.    2.01995 (86) obj. 4.30192 iterations 7697
Cbc0038I No solution found this major pass
Cbc0038I After 12.74 seconds - Feasibility pump exiting with objective of 5.514 - took 9.92 seconds
Cbc0012I Integer solution of 5.514 found by feasibility pump after 0 iterations and 0 nodes (12.74 seconds)
Cbc0038I Full problem 11857 rows 2365 columns, reduced to 1369 rows 369 columns
Cbc0012I Integer solution of 3.217 found by DiveCoefficient after 590 iterations and 0 nodes (14.09 seconds)
Cbc0031I 114 added rows had average density of 18.947368
Cbc0013I At root node, 114 cuts changed objective from 1.2911771 to 1.4587569 in 15 passes
Cbc0014I Cut generator 0 (Probing) - 302 row cuts average 3.2 elements, 21 column cuts (21 active)  in 0.245 seconds - new frequency is 1
Cbc0014I Cut generator 1 (Gomory) - 0 row cuts average 0.0 elements, 0 column cuts (0 active)  in 0.099 seconds - new frequency is -100
Cbc0014I Cut generator 2 (Knapsack) - 1 row cuts average 3.0 elements, 0 column cuts (0 active)  in 0.048 seconds - new frequency is -100
Cbc0014I Cut generator 3 (Clique) - 0 row cuts average 0.0 elements, 0 column cuts (0 active)  in 0.002 seconds - new frequency is -100
Cbc0014I Cut generator 4 (MixedIntegerRounding2) - 3 row cuts average 2.7 elements, 0 column cuts (0 active)  in 0.065 seconds - new frequency is -100
Cbc0014I Cut generator 5 (FlowCover) - 0 row cuts average 0.0 elements, 0 column cuts (0 active)  in 0.032 seconds - new frequency is -100
Cbc0014I Cut generator 7 (ZeroHalf) - 317 row cuts average 118.7 elements, 0 column cuts (0 active)  in 0.273 seconds - new frequency is 1
Cbc0010I After 0 nodes, 1 on tree, 3.217 best solution, best possible 1.4587569 (14.30 seconds)
Cbc0004I Integer solution of 2.018 found after 5702 iterations and 12 nodes (19.60 seconds)
Cbc0001I Search completed - best objective 2.017999999999999, took 7833 iterations and 20 nodes (19.99 seconds)
Cbc0032I Strong branching done 246 times (14768 iterations), fathomed 0 nodes and fixed 0 variables
Cbc0035I Maximum depth 9, 1490 variables fixed on reduced cost
Cuts at root node changed objective from 1.29118 to 1.45876
Probing was tried 54 times and created 702 cuts of which 0 were active after adding rounds of cuts (0.358 seconds)
Gomory was tried 15 times and created 0 cuts of which 0 were active after adding rounds of cuts (0.099 seconds)
Knapsack was tried 15 times and created 1 cuts of which 0 were active after adding rounds of cuts (0.048 seconds)
Clique was tried 15 times and created 0 cuts of which 0 were active after adding rounds of cuts (0.002 seconds)
MixedIntegerRounding2 was tried 15 times and created 3 cuts of which 0 were active after adding rounds of cuts (0.065 seconds)
FlowCover was tried 15 times and created 0 cuts of which 0 were active after adding rounds of cuts (0.032 seconds)
TwoMirCuts was tried 1 times and created 0 cuts of which 0 were active after adding rounds of cuts (0.027 seconds)
ZeroHalf was tried 54 times and created 913 cuts of which 0 were active after adding rounds of cuts (1.007 seconds)

Result - Optimal solution found

Objective value:                2.01800000
Enumerated nodes:               20
Total iterations:               7833
Time (CPU seconds):             19.90
Time (Wallclock seconds):       20.05

Option for printingOptions changed from normal to all
Total time (CPU seconds):       19.93   (Wallclock seconds):       20.08

Root classes: ['26']
Status: Optimal
Solved x values:
['0.0', '1.2', '2.2', '3.2', '4.2', '6.0', '7.2', '8.0', '9.2', '12.2', '14.0', '15.2', '18.2', '20.2', '26.20', '82.8', '85.3', '86.3', '157.3', '158.3']
